NAME : cgl_107.5515.tour
COMMENT : Length = 5515
COMMENT : Found by LKH-3 [Keld Helsgaun] Thu Jun 26 21:26:50 2025
TYPE : TOUR
DIMENSION : 108
TOUR_SECTION
8
7
6
1
2
3
4
5
74
93
94
91
92
72
75
90
73
95
96
77
86
89
88
81
80
78
83
87
85
84
79
82
76
58
63
69
66
61
57
62
59
71
60
70
68
65
67
64
56
55
54
53
52
108
105
107
106
104
103
102
101
16
36
34
39
41
33
37
38
35
42
32
40
44
43
45
46
47
48
49
22
31
20
21
50
30
19
51
27
28
29
17
26
25
18
24
23
15
14
13
100
99
98
12
10
11
9
97
-1
EOF
